NAME : mEgtspf.pid6614.gtsp.241592052.tour
COMMENT : Length = 241592052
COMMENT : Found by LKH [Keld Helsgaun] Thu Mar 13 06:03:24 2025
TYPE : TOUR
DIMENSION : 135
TOUR_SECTION
1
60
61
62
63
133
134
135
132
49
50
51
48
15
33
34
35
32
65
66
67
64
46
47
44
45
55
52
53
54
38
39
36
37
125
126
127
124
122
123
120
121
23
20
21
22
58
59
56
57
3
11
10
14
43
40
41
42
76
77
78
79
107
104
105
106
13
81
82
83
80
74
75
72
73
12
24
25
26
27
30
31
28
29
2
68
69
70
71
113
114
115
112
8
6
84
85
86
87
4
17
18
19
16
9
103
100
101
102
97
98
99
96
129
130
131
128
90
91
88
89
7
92
93
94
95
5
117
118
119
116
109
110
111
108
-1
EOF
